p cnf 13 131
-4 6 1 0
9 -2 -8 0
1 2 -5 0
-11 12 6 0
5 -11 -10 0
-12 -4 13 0
-13 -1 6 0
1 -3 -9 0
-1 12 -9 0
-9 3 -6 0
7 -1 -9 0
-3 6 1 0
-4 -11 1 0
13 12 9 0
-6 -8 -13 0
4 -2 -6 0
10 1 2 0
2 -9 -3 0
5 1 10 0
2 -1 5 0
-13 1 5 0
-6 10 -4 0
1 2 5 0
-1 5 2 0
2 -1 5 0
13 8 6 0
-3 -1 -8 0
-1 -3 -5 0
4 9 5 0
11 1 7 0
7 2 -8 0
-3 -2 8 0
-4 -2 -8 0
10 -8 -2 0
9 -1 12 0
6 1 5 0
-10 8 3 0
8 2 -1 0
1 7 11 0
-5 3 4 0
-2 11 8 0
-13 2 -7 0
-1 -13 -2 0
1 -4 -7 0
-9 10 12 0
-1 -8 -12 0
-11 2 -7 0
12 2 -13 0
-2 -11 1 0
-1 13 -11 0
-13 -1 -3 0
9 2 13 0
1 5 12 0
5 2 1 0
2 10 -7 0
-1 8 2 0
-6 3 5 0
10 -2 11 0
-7 -2 -12 0
1 -10 5 0
-4 -6 -1 0
-2 4 -3 0
-4 8 -12 0
2 1 6 0
3 9 -8 0
2 -4 -11 0
-4 -2 3 0
-4 -2 -8 0
-1 -8 3 0
4 12 -3 0
-7 -3 5 0
-2 -10 6 0
-7 2 1 0
3 -13 -2 0
11 2 8 0
8 -1 2 0
-1 7 9 0
12 13 -11 0
-7 1 -8 0
6 -13 -8 0
8 1 -13 0
10 -1 -11 0
-1 7 13 0
8 5 -3 0
11 8 -12 0
9 -5 -3 0
-4 1 -13 0
-1 2 -13 0
-3 13 -6 0
-4 -1 -10 0
-4 -2 -8 0
-2 3 8 0
5 4 3 0
-3 8 -2 0
-2 -1 -9 0
-9 2 4 0
-10 -12 3 0
5 12 -7 0
12 -5 -2 0
1 2 -4 0
11 1 -8 0
-8 2 -10 0
-1 4 2 0
-2 1 7 0
1 4 -13 0
2 -3 -5 0
5 3 -10 0
-13 -9 -3 0
-2 8 -4 0
-2 9 5 0
-2 1 8 0
2 11 -5 0
1 10 5 0
2 -13 10 0
-7 2 -10 0
-2 1 4 0
10 -1 -5 0
6 -1 -10 0
10 6 -11 0
11 -4 1 0
-7 11 -5 0
-9 -12 4 0
8 -11 -4 0
1 7 3 0
-7 -1 -5 0
12 10 4 0
-12 13 -8 0
-1 -7 -5 0
-10 -5 -11 0
3 -5 9 0
2 8 6 0
